0 5
0 26
0 30
0 33
0 37
0 55
1 6
1 27
1 31
1 34
1 38
1 56
2 7
2 28
2 30
2 32
2 39
2 57
3 8
3 29
3 31
3 33
3 35
3 58
4 9
4 25
4 32
4 34
4 36
4 59
5 10
5 32
5 35
5 36
5 44
6 11
6 33
6 36
6 37
6 40
7 12
7 34
7 37
7 38
7 41
8 13
8 30
8 38
8 39
8 42
9 14
9 31
9 35
9 39
9 43
10 15
10 39
10 40
10 42
10 48
11 16
11 35
11 41
11 43
11 49
12 17
12 36
12 42
12 44
12 45
13 18
13 37
13 40
13 43
13 46
14 19
14 38
14 41
14 44
14 47
15 20
15 43
15 45
15 49
15 51
16 21
16 44
16 45
16 46
16 52
17 22
17 40
17 46
17 47
17 53
18 23
18 41
18 47
18 48
18 54
19 24
19 42
19 48
19 49
19 50
20 25
20 46
20 50
20 53
20 57
21 26
21 47
21 51
21 54
21 58
22 27
22 48
22 50
22 52
22 59
23 28
23 49
23 51
23 53
23 55
24 29
24 45
24 52
24 54
24 56
25 30
25 52
25 55
25 56
26 31
26 53
26 56
26 57
27 32
27 54
27 57
27 58
28 33
28 50
28 58
28 59
29 34
29 51
29 55
29 59
30 35
30 59
31 36
31 55
32 37
32 56
33 38
33 57
34 39
34 58
35 40
36 41
37 42
38 43
39 44
40 45
41 46
42 47
43 48
44 49
45 50
46 51
47 52
48 53
49 54
50 55
51 56
52 57
53 58
54 59
